100
32
5
5
15
6
8
5
16
5
27
10
27
27
25
6
8
4
1
4
19
27
16
27
28
6
3
8
8
16
9
14
10
4
5
1
9
9
1
19
9
4
1
2
16
3
5
1
1
7
3
1
2
2
1
17
1
5
1
2
17
2
3
5
2
1
5
17
3
5
1
19
10
1
4
2
1
1
2
4
20
18
3
1
1
5
3
3
2
1
4
2
2
1
19
7
3
1
2
1
3
1